(set-info :smt-lib-version 2.6)
(set-logic QF_NIA)
(set-info :source |
Generated by: Cristina Borralleras, Daniel Larraz, Albert Oliveras, Enric Rodriguez-Carbonell, Albert Rubio
Generated on: 2017-04-27
Generator: VeryMax
Application: Termination proving
Target solver: barcelogic
|)
(set-info :license "https://creativecommons.org/licenses/by/4.0/")
(set-info :category "industrial")
(set-info :status unsat)
(declare-fun Nl8arg11 () Int)
(declare-fun Nl8arg21 () Int)
(declare-fun Nl8arg31 () Int)
(declare-fun lam0n0 () Int)
(declare-fun lam0n1 () Int)
(declare-fun lam0n2 () Int)
(declare-fun lam0n3 () Int)
(declare-fun lam0n4 () Int)
(declare-fun lam0n5 () Int)
(declare-fun lam0n6 () Int)
(declare-fun lam0n7 () Int)
(declare-fun lam0n8 () Int)
(declare-fun lam0n9 () Int)
(declare-fun lam0n10 () Int)
(declare-fun lam0n11 () Int)
(declare-fun Nl8CT1 () Int)
(declare-fun lam1n0 () Int)
(declare-fun lam1n1 () Int)
(declare-fun lam1n2 () Int)
(declare-fun lam1n3 () Int)
(declare-fun lam1n4 () Int)
(declare-fun lam1n5 () Int)
(declare-fun lam1n6 () Int)
(declare-fun lam1n7 () Int)
(declare-fun lam1n8 () Int)
(declare-fun lam1n9 () Int)
(declare-fun lam1n10 () Int)
(declare-fun lam1n11 () Int)
(declare-fun lam2n0 () Int)
(declare-fun lam2n1 () Int)
(declare-fun lam2n2 () Int)
(declare-fun lam2n3 () Int)
(declare-fun lam2n4 () Int)
(declare-fun lam2n5 () Int)
(declare-fun lam2n6 () Int)
(declare-fun lam2n7 () Int)
(declare-fun lam3n0 () Int)
(declare-fun lam3n1 () Int)
(declare-fun lam3n2 () Int)
(declare-fun lam3n3 () Int)
(declare-fun lam3n4 () Int)
(declare-fun lam3n5 () Int)
(declare-fun lam3n6 () Int)
(declare-fun lam3n7 () Int)
(declare-fun lam4n0 () Int)
(declare-fun lam4n1 () Int)
(declare-fun lam4n2 () Int)
(declare-fun lam4n3 () Int)
(declare-fun lam4n4 () Int)
(declare-fun lam4n5 () Int)
(declare-fun lam4n7 () Int)
(declare-fun lam4n6 () Int)
(declare-fun lam5n0 () Int)
(declare-fun lam5n1 () Int)
(declare-fun lam5n2 () Int)
(declare-fun lam5n3 () Int)
(declare-fun lam5n4 () Int)
(declare-fun lam5n5 () Int)
(declare-fun lam5n7 () Int)
(declare-fun lam5n6 () Int)
(declare-fun lam8n0 () Int)
(declare-fun lam8n1 () Int)
(declare-fun lam8n2 () Int)
(declare-fun lam8n3 () Int)
(declare-fun lam8n4 () Int)
(declare-fun lam8n5 () Int)
(declare-fun lam8n6 () Int)
(declare-fun lam8n7 () Int)
(declare-fun lam8n8 () Int)
(declare-fun lam8n9 () Int)
(declare-fun lam8n10 () Int)
(declare-fun lam8n11 () Int)
(declare-fun RFN1_CT () Int)
(declare-fun RFN1_arg1 () Int)
(declare-fun RFN1_arg2 () Int)
(declare-fun RFN1_arg3 () Int)
(declare-fun lam11n0 () Int)
(declare-fun lam11n1 () Int)
(declare-fun lam11n2 () Int)
(declare-fun lam11n3 () Int)
(declare-fun lam11n4 () Int)
(declare-fun lam11n5 () Int)
(declare-fun lam11n6 () Int)
(declare-fun lam11n7 () Int)
(declare-fun lam14n0 () Int)
(declare-fun lam14n1 () Int)
(declare-fun lam14n2 () Int)
(declare-fun lam14n3 () Int)
(declare-fun lam14n4 () Int)
(declare-fun lam14n5 () Int)
(declare-fun lam14n7 () Int)
(declare-fun lam14n6 () Int)
(declare-fun lam6n0 () Int)
(declare-fun lam6n1 () Int)
(declare-fun lam6n2 () Int)
(declare-fun lam6n3 () Int)
(declare-fun lam6n4 () Int)
(declare-fun lam6n5 () Int)
(declare-fun lam6n6 () Int)
(declare-fun lam6n7 () Int)
(declare-fun lam6n8 () Int)
(declare-fun lam6n9 () Int)
(declare-fun lam6n10 () Int)
(declare-fun lam6n11 () Int)
(declare-fun lam7n0 () Int)
(declare-fun lam7n1 () Int)
(declare-fun lam7n2 () Int)
(declare-fun lam7n3 () Int)
(declare-fun lam7n4 () Int)
(declare-fun lam7n5 () Int)
(declare-fun lam7n6 () Int)
(declare-fun lam7n7 () Int)
(declare-fun lam7n8 () Int)
(declare-fun lam7n9 () Int)
(declare-fun lam7n10 () Int)
(declare-fun lam7n11 () Int)
(declare-fun lam15n0 () Int)
(declare-fun lam15n1 () Int)
(declare-fun lam15n2 () Int)
(declare-fun lam15n3 () Int)
(declare-fun lam15n4 () Int)
(declare-fun lam15n5 () Int)
(declare-fun lam15n6 () Int)
(declare-fun lam15n7 () Int)
(declare-fun lam15n8 () Int)
(declare-fun lam15n9 () Int)
(declare-fun lam15n10 () Int)
(declare-fun lam15n11 () Int)
(assert ( and ( <= ( - 13 ) Nl8arg11 ) ( <= Nl8arg11 13 ) ( <= ( - 13 ) Nl8arg21 ) ( <= Nl8arg21 13 ) ( <= ( - 13 ) Nl8arg31 ) ( <= Nl8arg31 13 ) ))
(assert ( or ( and ( >= lam0n0 0 ) ( >= lam0n1 0 ) ( >= lam0n2 0 ) ( >= lam0n3 0 ) ( >= lam0n4 0 ) ( >= lam0n5 0 ) ( >= lam0n6 0 ) ( >= lam0n7 0 ) ( >= lam0n8 0 ) ( >= lam0n9 0 ) ( >= lam0n10 0 ) ( >= lam0n11 0 ) ( > ( + ( * 1 lam0n0 ) ( * 1 lam0n1 ) ( * 1 lam0n2 ) ( * 2 lam0n5 ) ( * 13 lam0n6 ) ( * 50001 lam0n7 ) ( * 50001 lam0n8 ) ( * 50001 lam0n9 ) ( * ( - 23 ) lam0n10 ) ( * Nl8CT1 lam0n11 ) ( - 1 ) ) 0 ) ( = ( + ( * ( - 1 ) lam0n0 ) ( * ( - 1 ) lam0n3 ) ( * 50000 lam0n7 ) ( * 1200000 lam0n8 ) ( * Nl8arg11 lam0n11 ) ) 0 ) ( = ( + ( * 1 lam0n5 ) ( * ( - 1 ) lam0n7 ) ( * ( - 24 ) lam0n8 ) ( * ( - 1 ) lam0n9 ) ( * Nl8arg21 lam0n11 ) ) 0 ) ( = ( + ( * ( - 1 ) lam0n6 ) ( * ( - 1 ) lam0n8 ) ( * 1 lam0n10 ) ( * Nl8arg31 lam0n11 ) ) 0 ) ( = ( + ( * ( - 1 ) lam0n1 ) ( * 1 lam0n4 ) ) 0 ) ( = ( * ( - 1 ) lam0n5 ) 0 ) ( = ( + ( * ( - 1 ) lam0n2 ) ( * 1 lam0n3 ) ( * ( - 1 ) lam0n4 ) ) 0 ) ) ( and ( >= lam1n0 0 ) ( >= lam1n1 0 ) ( >= lam1n2 0 ) ( >= lam1n3 0 ) ( >= lam1n4 0 ) ( >= lam1n5 0 ) ( >= lam1n6 0 ) ( >= lam1n7 0 ) ( >= lam1n8 0 ) ( >= lam1n9 0 ) ( >= lam1n10 0 ) ( >= lam1n11 0 ) ( > ( + ( * 1 lam1n0 ) ( * 1 lam1n1 ) ( * 1 lam1n2 ) ( * 2 lam1n5 ) ( * 13 lam1n6 ) ( * 50001 lam1n7 ) ( * 50001 lam1n8 ) ( * 50001 lam1n9 ) ( * ( - 23 ) lam1n10 ) ( * Nl8CT1 lam1n11 ) ( - 1 ( + ( + ( + Nl8CT1 ( * Nl8arg11 0 ) ) ( * Nl8arg21 1 ) ) ( * Nl8arg31 0 ) ) ) ) 0 ) ( = ( + ( * ( - 1 ) lam1n0 ) ( * ( - 1 ) lam1n3 ) ( * 50000 lam1n7 ) ( * 1200000 lam1n8 ) ( * Nl8arg11 lam1n11 ) ) 0 ) ( = ( + ( * 1 lam1n5 ) ( * ( - 1 ) lam1n7 ) ( * ( - 24 ) lam1n8 ) ( * ( - 1 ) lam1n9 ) ( * Nl8arg21 lam1n11 ) ( - ( + 0 ( * Nl8arg21 1 ) ) ) ) 0 ) ( = ( + ( * ( - 1 ) lam1n6 ) ( * ( - 1 ) lam1n8 ) ( * 1 lam1n10 ) ( * Nl8arg31 lam1n11 ) ) 0 ) ( = ( + ( * ( - 1 ) lam1n1 ) ( * 1 lam1n4 ) ( - ( + 0 ( * Nl8arg11 1 ) ) ) ) 0 ) ( = ( * ( - 1 ) lam1n5 ) 0 ) ( = ( + ( * ( - 1 ) lam1n2 ) ( * 1 lam1n3 ) ( * ( - 1 ) lam1n4 ) ) 0 ) ) ))
(assert ( or ( and ( >= lam2n0 0 ) ( >= lam2n1 0 ) ( >= lam2n2 0 ) ( >= lam2n3 0 ) ( >= lam2n4 0 ) ( >= lam2n5 0 ) ( >= lam2n6 0 ) ( >= lam2n7 0 ) ( > ( + ( * 1 lam2n0 ) ( * 1 lam2n1 ) ( * ( - 11 ) lam2n4 ) ( * 50001 lam2n5 ) ( * 50001 lam2n6 ) ( * Nl8CT1 lam2n7 ) ( - 1 ) ) 0 ) ( = ( + ( * ( - 1 ) lam2n0 ) ( * ( - 1 ) lam2n2 ) ( * 1200000 lam2n5 ) ( * Nl8arg11 lam2n7 ) ) 0 ) ( = ( + ( * ( - 1 ) lam2n3 ) ( * ( - 24 ) lam2n5 ) ( * ( - 23 ) lam2n6 ) ( * Nl8arg21 lam2n7 ) ) 0 ) ( = ( + ( * 1 lam2n4 ) ( * ( - 1 ) lam2n5 ) ( * ( - 1 ) lam2n6 ) ( * Nl8arg31 lam2n7 ) ) 0 ) ( = ( + ( * ( - 1 ) lam2n1 ) ( * 1 lam2n2 ) ) 0 ) ) ( and ( >= lam3n0 0 ) ( >= lam3n1 0 ) ( >= lam3n2 0 ) ( >= lam3n3 0 ) ( >= lam3n4 0 ) ( >= lam3n5 0 ) ( >= lam3n6 0 ) ( >= lam3n7 0 ) ( > ( + ( * 1 lam3n0 ) ( * 1 lam3n1 ) ( * ( - 11 ) lam3n4 ) ( * 50001 lam3n5 ) ( * 50001 lam3n6 ) ( * Nl8CT1 lam3n7 ) ( - 1 ( + ( + Nl8CT1 ( * Nl8arg11 0 ) ) ( * Nl8arg31 1 ) ) ) ) 0 ) ( = ( + ( * ( - 1 ) lam3n0 ) ( * ( - 1 ) lam3n2 ) ( * 1200000 lam3n5 ) ( * Nl8arg11 lam3n7 ) ) 0 ) ( = ( + ( * ( - 1 ) lam3n3 ) ( * ( - 24 ) lam3n5 ) ( * ( - 23 ) lam3n6 ) ( * Nl8arg21 lam3n7 ) ( - ( + 0 Nl8arg21 ) ) ) 0 ) ( = ( + ( * 1 lam3n4 ) ( * ( - 1 ) lam3n5 ) ( * ( - 1 ) lam3n6 ) ( * Nl8arg31 lam3n7 ) ( - ( + 0 ( * Nl8arg31 1 ) ) ) ) 0 ) ( = ( + ( * ( - 1 ) lam3n1 ) ( * 1 lam3n2 ) ( - ( + 0 ( * Nl8arg11 1 ) ) ) ) 0 ) ) ))
(assert ( or ( and ( >= lam4n0 0 ) ( >= lam4n1 0 ) ( >= lam4n2 0 ) ( >= lam4n3 0 ) ( >= lam4n4 0 ) ( >= lam4n5 0 ) ( >= lam4n7 0 ) ( > ( + ( * 1 lam4n0 ) ( * 1 lam4n1 ) ( * 50001 lam4n4 ) ( * 50001 lam4n5 ) ( * ( - 12 ) lam4n6 ) ( * Nl8CT1 lam4n7 ) ( - 1 ) ) 0 ) ( = ( + ( * ( - 1 ) lam4n0 ) ( * ( - 1 ) lam4n2 ) ( * 1200000 lam4n4 ) ( * Nl8arg11 lam4n7 ) ) 0 ) ( = ( + ( * ( - 1 ) lam4n3 ) ( * ( - 24 ) lam4n4 ) ( * ( - 23 ) lam4n5 ) ( * Nl8arg21 lam4n7 ) ) 0 ) ( = ( + ( * ( - 1 ) lam4n4 ) ( * ( - 1 ) lam4n5 ) ( * 1 lam4n6 ) ( * Nl8arg31 lam4n7 ) ) 0 ) ( = ( + ( * ( - 1 ) lam4n1 ) ( * 1 lam4n2 ) ) 0 ) ) ( and ( >= lam5n0 0 ) ( >= lam5n1 0 ) ( >= lam5n2 0 ) ( >= lam5n3 0 ) ( >= lam5n4 0 ) ( >= lam5n5 0 ) ( >= lam5n7 0 ) ( > ( + ( * 1 lam5n0 ) ( * 1 lam5n1 ) ( * 50001 lam5n4 ) ( * 50001 lam5n5 ) ( * ( - 12 ) lam5n6 ) ( * Nl8CT1 lam5n7 ) ( - 1 ( + ( + Nl8CT1 ( * Nl8arg11 0 ) ) ( * Nl8arg31 13 ) ) ) ) 0 ) ( = ( + ( * ( - 1 ) lam5n0 ) ( * ( - 1 ) lam5n2 ) ( * 1200000 lam5n4 ) ( * Nl8arg11 lam5n7 ) ) 0 ) ( = ( + ( * ( - 1 ) lam5n3 ) ( * ( - 24 ) lam5n4 ) ( * ( - 23 ) lam5n5 ) ( * Nl8arg21 lam5n7 ) ( - ( + 0 Nl8arg21 ) ) ) 0 ) ( = ( + ( * ( - 1 ) lam5n4 ) ( * ( - 1 ) lam5n5 ) ( * 1 lam5n6 ) ( * Nl8arg31 lam5n7 ) ) 0 ) ( = ( + ( * ( - 1 ) lam5n1 ) ( * 1 lam5n2 ) ( - ( + 0 ( * Nl8arg11 1 ) ) ) ) 0 ) ) ))
(assert ( and ( or ( and ( >= lam0n0 0 ) ( >= lam0n1 0 ) ( >= lam0n2 0 ) ( >= lam0n3 0 ) ( >= lam0n4 0 ) ( >= lam0n5 0 ) ( >= lam0n6 0 ) ( >= lam0n7 0 ) ( >= lam0n8 0 ) ( >= lam0n9 0 ) ( >= lam0n10 0 ) ( >= lam0n11 0 ) ( > ( + ( * 1 lam0n0 ) ( * 1 lam0n1 ) ( * 1 lam0n2 ) ( * 2 lam0n5 ) ( * 13 lam0n6 ) ( * 50001 lam0n7 ) ( * 50001 lam0n8 ) ( * 50001 lam0n9 ) ( * ( - 23 ) lam0n10 ) ( * Nl8CT1 lam0n11 ) ( - 1 ) ) 0 ) ( = ( + ( * ( - 1 ) lam0n0 ) ( * ( - 1 ) lam0n3 ) ( * 50000 lam0n7 ) ( * 1200000 lam0n8 ) ( * Nl8arg11 lam0n11 ) ) 0 ) ( = ( + ( * 1 lam0n5 ) ( * ( - 1 ) lam0n7 ) ( * ( - 24 ) lam0n8 ) ( * ( - 1 ) lam0n9 ) ( * Nl8arg21 lam0n11 ) ) 0 ) ( = ( + ( * ( - 1 ) lam0n6 ) ( * ( - 1 ) lam0n8 ) ( * 1 lam0n10 ) ( * Nl8arg31 lam0n11 ) ) 0 ) ( = ( + ( * ( - 1 ) lam0n1 ) ( * 1 lam0n4 ) ) 0 ) ( = ( * ( - 1 ) lam0n5 ) 0 ) ( = ( + ( * ( - 1 ) lam0n2 ) ( * 1 lam0n3 ) ( * ( - 1 ) lam0n4 ) ) 0 ) ) ( and ( >= lam8n0 0 ) ( >= lam8n1 0 ) ( >= lam8n2 0 ) ( >= lam8n3 0 ) ( >= lam8n4 0 ) ( >= lam8n5 0 ) ( >= lam8n6 0 ) ( >= lam8n7 0 ) ( >= lam8n8 0 ) ( >= lam8n9 0 ) ( >= lam8n10 0 ) ( >= lam8n11 0 ) ( > ( + ( * 1 lam8n0 ) ( * 1 lam8n1 ) ( * 1 lam8n2 ) ( * 2 lam8n5 ) ( * 13 lam8n6 ) ( * 50001 lam8n7 ) ( * 50001 lam8n8 ) ( * 50001 lam8n9 ) ( * ( - 23 ) lam8n10 ) ( * Nl8CT1 lam8n11 ) ( - 1 ( - ( + ( + ( + RFN1_CT ( * RFN1_arg1 0 ) ) ( * RFN1_arg2 1 ) ) ( * RFN1_arg3 0 ) ) RFN1_CT ) ) ) 0 ) ( = ( + ( * ( - 1 ) lam8n0 ) ( * ( - 1 ) lam8n3 ) ( * 50000 lam8n7 ) ( * 1200000 lam8n8 ) ( * Nl8arg11 lam8n11 ) ( - ( - RFN1_arg1 ) ) ) 0 ) ( = ( + ( * 1 lam8n5 ) ( * ( - 1 ) lam8n7 ) ( * ( - 24 ) lam8n8 ) ( * ( - 1 ) lam8n9 ) ( * Nl8arg21 lam8n11 ) ( - ( - ( + 0 ( * RFN1_arg2 1 ) ) RFN1_arg2 ) ) ) 0 ) ( = ( + ( * ( - 1 ) lam8n6 ) ( * ( - 1 ) lam8n8 ) ( * 1 lam8n10 ) ( * Nl8arg31 lam8n11 ) ( - ( - RFN1_arg3 ) ) ) 0 ) ( = ( + ( * ( - 1 ) lam8n1 ) ( * 1 lam8n4 ) ( - ( + 0 ( * RFN1_arg1 1 ) ) ) ) 0 ) ( = ( * ( - 1 ) lam8n5 ) 0 ) ( = ( + ( * ( - 1 ) lam8n2 ) ( * 1 lam8n3 ) ( * ( - 1 ) lam8n4 ) ) 0 ) ) ) ( or ( and ( >= lam2n0 0 ) ( >= lam2n1 0 ) ( >= lam2n2 0 ) ( >= lam2n3 0 ) ( >= lam2n4 0 ) ( >= lam2n5 0 ) ( >= lam2n6 0 ) ( >= lam2n7 0 ) ( > ( + ( * 1 lam2n0 ) ( * 1 lam2n1 ) ( * ( - 11 ) lam2n4 ) ( * 50001 lam2n5 ) ( * 50001 lam2n6 ) ( * Nl8CT1 lam2n7 ) ( - 1 ) ) 0 ) ( = ( + ( * ( - 1 ) lam2n0 ) ( * ( - 1 ) lam2n2 ) ( * 1200000 lam2n5 ) ( * Nl8arg11 lam2n7 ) ) 0 ) ( = ( + ( * ( - 1 ) lam2n3 ) ( * ( - 24 ) lam2n5 ) ( * ( - 23 ) lam2n6 ) ( * Nl8arg21 lam2n7 ) ) 0 ) ( = ( + ( * 1 lam2n4 ) ( * ( - 1 ) lam2n5 ) ( * ( - 1 ) lam2n6 ) ( * Nl8arg31 lam2n7 ) ) 0 ) ( = ( + ( * ( - 1 ) lam2n1 ) ( * 1 lam2n2 ) ) 0 ) ) ( and ( >= lam11n0 0 ) ( >= lam11n1 0 ) ( >= lam11n2 0 ) ( >= lam11n3 0 ) ( >= lam11n4 0 ) ( >= lam11n5 0 ) ( >= lam11n6 0 ) ( >= lam11n7 0 ) ( > ( + ( * 1 lam11n0 ) ( * 1 lam11n1 ) ( * ( - 11 ) lam11n4 ) ( * 50001 lam11n5 ) ( * 50001 lam11n6 ) ( * Nl8CT1 lam11n7 ) ( - 1 ( - ( + ( + RFN1_CT ( * RFN1_arg1 0 ) ) ( * RFN1_arg3 1 ) ) RFN1_CT ) ) ) 0 ) ( = ( + ( * ( - 1 ) lam11n0 ) ( * ( - 1 ) lam11n2 ) ( * 1200000 lam11n5 ) ( * Nl8arg11 lam11n7 ) ( - ( - RFN1_arg1 ) ) ) 0 ) ( = ( + ( * ( - 1 ) lam11n3 ) ( * ( - 24 ) lam11n5 ) ( * ( - 23 ) lam11n6 ) ( * Nl8arg21 lam11n7 ) ( - ( - ( + 0 RFN1_arg2 ) RFN1_arg2 ) ) ) 0 ) ( = ( + ( * 1 lam11n4 ) ( * ( - 1 ) lam11n5 ) ( * ( - 1 ) lam11n6 ) ( * Nl8arg31 lam11n7 ) ( - ( - ( + 0 ( * RFN1_arg3 1 ) ) RFN1_arg3 ) ) ) 0 ) ( = ( + ( * ( - 1 ) lam11n1 ) ( * 1 lam11n2 ) ( - ( + 0 ( * RFN1_arg1 1 ) ) ) ) 0 ) ) ) ( or ( and ( >= lam4n0 0 ) ( >= lam4n1 0 ) ( >= lam4n2 0 ) ( >= lam4n3 0 ) ( >= lam4n4 0 ) ( >= lam4n5 0 ) ( >= lam4n7 0 ) ( > ( + ( * 1 lam4n0 ) ( * 1 lam4n1 ) ( * 50001 lam4n4 ) ( * 50001 lam4n5 ) ( * ( - 12 ) lam4n6 ) ( * Nl8CT1 lam4n7 ) ( - 1 ) ) 0 ) ( = ( + ( * ( - 1 ) lam4n0 ) ( * ( - 1 ) lam4n2 ) ( * 1200000 lam4n4 ) ( * Nl8arg11 lam4n7 ) ) 0 ) ( = ( + ( * ( - 1 ) lam4n3 ) ( * ( - 24 ) lam4n4 ) ( * ( - 23 ) lam4n5 ) ( * Nl8arg21 lam4n7 ) ) 0 ) ( = ( + ( * ( - 1 ) lam4n4 ) ( * ( - 1 ) lam4n5 ) ( * 1 lam4n6 ) ( * Nl8arg31 lam4n7 ) ) 0 ) ( = ( + ( * ( - 1 ) lam4n1 ) ( * 1 lam4n2 ) ) 0 ) ) ( and ( >= lam14n0 0 ) ( >= lam14n1 0 ) ( >= lam14n2 0 ) ( >= lam14n3 0 ) ( >= lam14n4 0 ) ( >= lam14n5 0 ) ( >= lam14n7 0 ) ( > ( + ( * 1 lam14n0 ) ( * 1 lam14n1 ) ( * 50001 lam14n4 ) ( * 50001 lam14n5 ) ( * ( - 12 ) lam14n6 ) ( * Nl8CT1 lam14n7 ) ( - 1 ( - ( + ( + RFN1_CT ( * RFN1_arg1 0 ) ) ( * RFN1_arg3 13 ) ) RFN1_CT ) ) ) 0 ) ( = ( + ( * ( - 1 ) lam14n0 ) ( * ( - 1 ) lam14n2 ) ( * 1200000 lam14n4 ) ( * Nl8arg11 lam14n7 ) ( - ( - RFN1_arg1 ) ) ) 0 ) ( = ( + ( * ( - 1 ) lam14n3 ) ( * ( - 24 ) lam14n4 ) ( * ( - 23 ) lam14n5 ) ( * Nl8arg21 lam14n7 ) ( - ( - ( + 0 RFN1_arg2 ) RFN1_arg2 ) ) ) 0 ) ( = ( + ( * ( - 1 ) lam14n4 ) ( * ( - 1 ) lam14n5 ) ( * 1 lam14n6 ) ( * Nl8arg31 lam14n7 ) ( - ( - RFN1_arg3 ) ) ) 0 ) ( = ( + ( * ( - 1 ) lam14n1 ) ( * 1 lam14n2 ) ( - ( + 0 ( * RFN1_arg1 1 ) ) ) ) 0 ) ) ) ))
(assert ( and ( and ( and ( >= lam6n0 0 ) ( >= lam6n1 0 ) ( >= lam6n2 0 ) ( >= lam6n3 0 ) ( >= lam6n4 0 ) ( >= lam6n5 0 ) ( >= lam6n6 0 ) ( >= lam6n7 0 ) ( >= lam6n8 0 ) ( >= lam6n9 0 ) ( >= lam6n10 0 ) ( >= lam6n11 0 ) ( > ( + ( * 1 lam6n0 ) ( * 1 lam6n1 ) ( * 1 lam6n2 ) ( * 2 lam6n5 ) ( * 13 lam6n6 ) ( * 50001 lam6n7 ) ( * 50001 lam6n8 ) ( * 50001 lam6n9 ) ( * ( - 23 ) lam6n10 ) ( * Nl8CT1 lam6n11 ) ( - 1 ( - RFN1_CT ) ) ) 0 ) ( = ( + ( * ( - 1 ) lam6n0 ) ( * ( - 1 ) lam6n3 ) ( * 50000 lam6n7 ) ( * 1200000 lam6n8 ) ( * Nl8arg11 lam6n11 ) ( - ( - RFN1_arg1 ) ) ) 0 ) ( = ( + ( * 1 lam6n5 ) ( * ( - 1 ) lam6n7 ) ( * ( - 24 ) lam6n8 ) ( * ( - 1 ) lam6n9 ) ( * Nl8arg21 lam6n11 ) ( - ( - RFN1_arg2 ) ) ) 0 ) ( = ( + ( * ( - 1 ) lam6n6 ) ( * ( - 1 ) lam6n8 ) ( * 1 lam6n10 ) ( * Nl8arg31 lam6n11 ) ( - ( - RFN1_arg3 ) ) ) 0 ) ( = ( + ( * ( - 1 ) lam6n1 ) ( * 1 lam6n4 ) ) 0 ) ( = ( * ( - 1 ) lam6n5 ) 0 ) ( = ( + ( * ( - 1 ) lam6n2 ) ( * 1 lam6n3 ) ( * ( - 1 ) lam6n4 ) ) 0 ) ) ( and ( >= lam7n0 0 ) ( >= lam7n1 0 ) ( >= lam7n2 0 ) ( >= lam7n3 0 ) ( >= lam7n4 0 ) ( >= lam7n5 0 ) ( >= lam7n6 0 ) ( >= lam7n7 0 ) ( >= lam7n8 0 ) ( >= lam7n9 0 ) ( >= lam7n10 0 ) ( >= lam7n11 0 ) ( > ( + ( * 1 lam7n0 ) ( * 1 lam7n1 ) ( * 1 lam7n2 ) ( * 2 lam7n5 ) ( * 13 lam7n6 ) ( * 50001 lam7n7 ) ( * 50001 lam7n8 ) ( * 50001 lam7n9 ) ( * ( - 23 ) lam7n10 ) ( * Nl8CT1 lam7n11 ) ( - 1 ( + ( - ( + ( + ( + RFN1_CT ( * RFN1_arg1 0 ) ) ( * RFN1_arg2 1 ) ) ( * RFN1_arg3 0 ) ) RFN1_CT ) 1 ) ) ) 0 ) ( = ( + ( * ( - 1 ) lam7n0 ) ( * ( - 1 ) lam7n3 ) ( * 50000 lam7n7 ) ( * 1200000 lam7n8 ) ( * Nl8arg11 lam7n11 ) ( - ( - RFN1_arg1 ) ) ) 0 ) ( = ( + ( * 1 lam7n5 ) ( * ( - 1 ) lam7n7 ) ( * ( - 24 ) lam7n8 ) ( * ( - 1 ) lam7n9 ) ( * Nl8arg21 lam7n11 ) ( - ( - ( + 0 ( * RFN1_arg2 1 ) ) RFN1_arg2 ) ) ) 0 ) ( = ( + ( * ( - 1 ) lam7n6 ) ( * ( - 1 ) lam7n8 ) ( * 1 lam7n10 ) ( * Nl8arg31 lam7n11 ) ( - ( - RFN1_arg3 ) ) ) 0 ) ( = ( + ( * ( - 1 ) lam7n1 ) ( * 1 lam7n4 ) ( - ( + 0 ( * RFN1_arg1 1 ) ) ) ) 0 ) ( = ( * ( - 1 ) lam7n5 ) 0 ) ( = ( + ( * ( - 1 ) lam7n2 ) ( * 1 lam7n3 ) ( * ( - 1 ) lam7n4 ) ) 0 ) ) ) ( and ( >= lam15n0 0 ) ( >= lam15n1 0 ) ( >= lam15n2 0 ) ( >= lam15n3 0 ) ( >= lam15n4 0 ) ( >= lam15n5 0 ) ( >= lam15n6 0 ) ( >= lam15n7 0 ) ( >= lam15n8 0 ) ( >= lam15n9 0 ) ( >= lam15n10 0 ) ( >= lam15n11 0 ) ( > ( + ( * 1 lam15n0 ) ( * 1 lam15n1 ) ( * 1 lam15n2 ) ( * 2 lam15n5 ) ( * 13 lam15n6 ) ( * 50001 lam15n7 ) ( * 50001 lam15n8 ) ( * 50001 lam15n9 ) ( * ( - 23 ) lam15n10 ) ( * ( + ( - Nl8CT1 ) 1 ) lam15n11 ) ( - 1 ) ) 0 ) ( = ( + ( * ( - 1 ) lam15n0 ) ( * ( - 1 ) lam15n3 ) ( * 50000 lam15n7 ) ( * 1200000 lam15n8 ) ( * ( - Nl8arg11 ) lam15n11 ) ) 0 ) ( = ( + ( * 1 lam15n5 ) ( * ( - 1 ) lam15n7 ) ( * ( - 24 ) lam15n8 ) ( * ( - 1 ) lam15n9 ) ( * ( - Nl8arg21 ) lam15n11 ) ) 0 ) ( = ( + ( * ( - 1 ) lam15n6 ) ( * ( - 1 ) lam15n8 ) ( * 1 lam15n10 ) ( * ( - Nl8arg31 ) lam15n11 ) ) 0 ) ( = ( + ( * ( - 1 ) lam15n1 ) ( * 1 lam15n4 ) ) 0 ) ( = ( * ( - 1 ) lam15n5 ) 0 ) ( = ( + ( * ( - 1 ) lam15n2 ) ( * 1 lam15n3 ) ( * ( - 1 ) lam15n4 ) ) 0 ) ) ))
(check-sat)
(exit)
